DIMACS_lns/graph-1000-668.col
p edge 1000 1792
e 3 941
e 3 29
e 3 75
e 3 511
e 3 533
e 4 166
e 4 780
e 4 776
e 4 926
e 4 123
e 6 796
e 6 291
e 6 240
e 6 200
e 6 611
e 7 788
e 7 215
e 7 349
e 7 779
e 7 750
e 7 47
e 7 43
e 7 351
e 9 151
e 9 713
e 9 533
e 9 71
e 9 793
e 10 505
e 10 529
e 10 347
e 10 884
e 10 157
e 10 910
e 11 416
e 11 56
e 11 279
e 11 870
e 11 746
e 12 143
e 12 499
e 12 802
e 13 175
e 13 541
e 13 340
e 13 25
e 14 188
e 14 792
e 14 533
e 14 554
e 16 366
e 16 273
e 16 887
e 17 94
e 17 83
e 17 681
e 17 508
e 17 39
e 18 371
e 18 64
e 18 820
e 22 471
e 22 437
e 22 250
e 22 672
e 25 231
e 25 152
e 26 62
e 26 286
e 26 979
e 26 361
e 26 816
e 26 442
e 27 704
e 27 390
e 27 549
e 27 341
e 27 351
e 27 320
e 28 77
e 28 326
e 28 239
e 28 466
e 28 988
e 29 683
e 29 621
e 29 873
e 29 640
e 31 981
e 31 572
e 31 535
e 31 793
e 34 179
e 34 642
e 34 949
e 34 612
e 34 563
e 34 443
e 34 685
e 36 911
e 36 772
e 36 496
e 36 374
e 37 232
e 37 938
e 37 348
e 37 398
e 37 708
e 38 140
e 38 669
e 38 707
e 39 679
e 39 500
e 40 999
e 40 295
e 40 586
e 41 729
e 41 489
e 41 463
e 41 656
e 41 210
e 42 507
e 42 655
e 42 692
e 42 230
e 43 89
e 43 931
e 43 623
e 46 209
e 46 559
e 46 178
e 46 946
e 46 538
e 47 48
e 47 536
e 48 535
e 48 726
e 48 528
e 48 420
e 48 850
e 50 816
e 50 680
e 50 910
e 50 398
e 52 98
e 52 944
e 52 977
e 52 919
e 53 261
e 53 267
e 53 562
e 53 941
e 53 783
e 53 462
e 53 597
e 56 354
e 56 459
e 56 883
e 56 637
e 57 586
e 57 321
e 57 450
e 57 518
e 57 166
e 57 211
e 59 328
e 59 656
e 59 451
e 59 753
e 59 103
e 59 472
e 60 485
e 60 254
e 60 477
e 60 351
e 60 274
e 61 542
e 61 956
e 61 310
e 61 96
e 62 458
e 62 915
e 62 594
e 63 640
e 63 469
e 63 922
e 63 71
e 63 118
e 64 273
e 64 582
e 64 568
e 64 816
e 64 891
e 65 184
e 65 763
e 65 312
e 65 476
e 65 901
e 65 685
e 65 989
e 66 415
e 66 845
e 66 768
e 66 584
e 67 493
e 67 657
e 67 851
e 69 477
e 69 279
e 69 1000
e 69 352
e 69 875
e 70 734
e 70 425
e 70 229
e 70 727
e 70 626
e 71 588
e 71 817
e 71 773
e 71 286
e 72 728
e 72 709
e 72 702
e 72 543
e 73 952
e 73 840
e 73 162
e 73 552
e 73 582
e 73 589
e 73 519
e 73 795
e 73 89
e 74 379
e 74 101
e 74 502
e 74 698
e 74 519
e 74 163
e 75 875
e 75 136
e 75 443
e 75 814
e 75 291
e 75 701
e 75 101
e 76 877
e 76 773
e 76 707
e 76 207
e 76 99
e 76 439
e 77 498
e 77 505
e 77 853
e 77 594
e 78 202
e 78 625
e 78 788
e 79 813
e 79 174
e 79 766
e 79 894
e 79 679
e 79 232
e 80 210
e 80 184
e 80 935
e 81 856
e 81 107
e 81 671
e 81 548
e 81 468
e 83 166
e 83 174
e 83 94
e 86 974
e 86 299
e 86 645
e 86 719
e 86 336
e 87 259
e 87 651
e 87 590
e 87 179
e 87 378
e 87 914
e 87 789
e 87 681
e 88 773
e 88 307
e 88 850
e 88 930
e 88 545
e 88 692
e 88 269
e 89 100
e 89 511
e 90 158
e 90 625
e 90 277
e 90 924
e 90 421
e 90 628
e 92 835
e 92 404
e 92 887
e 92 832
e 94 992
e 94 142
e 95 314
e 95 862
e 95 364
e 95 204
e 95 179
e 95 193
e 96 295
e 96 396
e 96 438
e 97 267
e 97 451
e 97 725
e 98 569
e 98 762
e 98 418
e 98 772
e 98 767
e 99 534
e 99 349
e 100 800
e 100 480
e 101 476
e 101 239
e 101 291
e 101 198
e 102 683
e 102 351
e 102 301
e 102 740
e 102 280
e 103 952
e 103 545
e 103 384
e 103 207
e 104 853
e 104 685
e 104 806
e 104 643
e 104 896
e 106 147
e 106 195
e 106 559
e 106 728
e 106 381
e 106 930
e 107 200
e 107 489
e 107 956
e 107 925
e 108 790
e 108 162
e 108 341
e 108 986
e 109 195
e 109 302
e 109 307
e 109 170
e 111 437
e 111 679
e 111 199
e 112 228
e 112 554
e 112 749
e 113 347
e 113 754
e 113 490
e 113 687
e 115 179
e 115 292
e 115 986
e 115 729
e 118 302
e 118 393
e 118 817
e 119 250
e 119 841
e 119 364
e 119 639
e 119 910
e 120 766
e 120 400
e 120 425
e 120 369
e 120 667
e 120 723
e 121 882
e 121 446
e 121 589
e 121 368
e 121 582
e 123 949
e 123 418
e 123 198
e 123 926
e 126 474
e 126 816
e 126 627
e 126 462
e 126 207
e 127 768
e 127 433
e 127 346
e 127 197
e 127 535
e 128 808
e 128 367
e 128 704
e 128 945
e 130 353
e 130 529
e 130 941
e 130 961
e 130 910
e 131 175
e 131 914
e 131 542
e 132 753
e 132 768
e 132 690
e 132 795
e 132 628
e 132 351
e 133 273
e 133 831
e 133 395
e 135 657
e 135 236
e 135 456
e 135 690
e 136 643
e 136 509
e 136 548
e 136 715
e 136 443
e 137 986
e 137 649
e 137 568
e 137 562
e 137 200
e 137 872
e 137 526
e 137 975
e 137 227
e 138 502
e 138 812
e 138 778
e 138 830
e 138 736
e 138 363
e 138 948
e 139 394
e 139 986
e 139 326
e 139 543
e 139 535
e 139 293
e 140 988
e 140 166
e 140 513
e 140 963
e 140 213
e 140 327
e 140 353
e 141 632
e 141 148
e 141 164
e 141 175
e 141 941
e 142 447
e 142 163
e 142 639
e 142 440
e 142 666
e 142 319
e 143 924
e 143 157
e 143 831
e 144 723
e 144 285
e 144 468
e 147 213
e 147 354
e 148 877
e 148 997
e 148 507
e 148 188
e 148 862
e 148 758
e 148 614
e 148 934
e 150 251
e 150 253
e 150 782
e 151 458
e 151 897
e 151 729
e 151 719
e 151 557
e 152 247
e 152 884
e 153 352
e 153 576
e 153 537
e 154 427
e 154 784
e 154 485
e 155 454
e 155 370
e 155 566
e 155 529
e 155 379
e 157 753
e 158 336
e 158 848
e 160 810
e 160 191
e 160 614
e 160 805
e 160 949
e 161 830
e 161 885
e 161 917
e 161 231
e 161 315
e 162 169
e 162 240
e 162 498
e 162 379
e 162 939
e 162 636
e 162 270
e 163 433
e 163 440
e 163 593
e 163 617
e 163 921
e 163 260
e 164 365
e 164 943
e 166 382
e 168 433
e 168 488
e 168 621
e 169 551
e 169 461
e 169 713
e 169 305
e 169 479
e 170 233
e 170 480
e 170 805
e 170 714
e 170 485
e 170 241
e 170 454
e 173 318
e 173 460
e 173 779
e 174 666
e 174 720
e 174 343
e 174 789
e 175 480
e 175 400
e 175 461
e 176 365
e 176 502
e 176 600
e 176 929
e 177 994
e 177 380
e 177 741
e 178 782
e 178 590
e 178 375
e 178 934
e 179 502
e 179 725
e 179 247
e 182 639
e 182 490
e 182 549
e 182 613
e 183 640
e 183 328
e 183 734
e 184 286
e 187 758
e 187 436
e 187 883
e 187 286
e 188 935
e 188 534
e 188 901
e 188 295
e 188 403
e 189 302
e 189 263
e 189 812
e 189 440
e 190 321
e 190 393
e 190 946
e 190 584
e 191 690
e 191 682
e 191 913
e 191 818
e 191 699
e 191 792
e 191 567
e 192 685
e 192 568
e 192 488
e 192 850
e 192 302
e 193 972
e 193 308
e 194 982
e 194 298
e 194 389
e 194 651
e 195 562
e 195 835
e 195 509
e 195 461
e 196 832
e 196 302
e 196 754
e 196 736
e 196 541
e 197 478
e 197 882
e 197 732
e 197 372
e 198 542
e 199 322
e 199 361
e 199 844
e 199 464
e 200 701
e 200 863
e 200 988
e 200 557
e 201 735
e 201 754
e 201 955
e 202 404
e 202 533
e 202 617
e 202 682
e 202 737
e 204 465
e 204 777
e 204 387
e 204 484
e 205 244
e 205 490
e 205 833
e 206 560
e 206 709
e 206 829
e 207 579
e 207 852
e 209 563
e 209 856
e 209 400
e 209 898
e 209 732
e 209 492
e 209 405
e 209 566
e 210 982
e 210 378
e 210 286
e 211 233
e 211 988
e 211 215
e 211 707
e 212 684
e 212 594
e 212 286
e 212 944
e 212 244
e 212 625
e 213 957
e 213 641
e 214 372
e 214 696
e 214 605
e 215 933
e 215 945
e 215 862
e 215 971
e 215 415
e 217 861
e 217 931
e 217 384
e 217 548
e 218 628
e 218 233
e 218 838
e 218 295
e 218 588
e 218 314
e 222 928
e 222 724
e 222 782
e 222 820
e 222 636
e 224 327
e 224 489
e 224 405
e 225 594
e 225 279
e 225 815
e 227 856
e 227 649
e 228 539
e 228 451
e 228 469
e 228 652
e 228 825
e 229 670
e 229 331
e 229 730
e 229 937
e 229 806
e 230 492
e 230 774
e 231 423
e 231 490
e 232 817
e 233 525
e 233 627
e 233 472
e 235 390
e 235 741
e 235 952
e 235 427
e 236 647
e 236 884
e 236 321
e 236 571
e 236 364
e 237 988
e 237 525
e 237 729
e 237 934
e 239 845
e 239 454
e 240 627
e 240 942
e 241 554
e 241 885
e 241 489
e 242 996
e 242 430
e 242 916
e 242 696
e 242 818
e 244 797
e 244 298
e 244 901
e 244 918
e 246 990
e 246 407
e 246 959
e 246 862
e 247 496
e 247 964
e 250 766
e 250 784
e 251 703
e 251 776
e 251 812
e 251 658
e 253 370
e 253 830
e 254 863
e 254 901
e 254 277
e 254 701
e 255 429
e 255 301
e 255 511
e 255 899
e 258 685
e 258 982
e 258 550
e 259 567
e 259 937
e 259 562
e 259 590
e 260 346
e 260 751
e 260 548
e 260 387
e 261 438
e 261 425
e 261 942
e 261 312
e 263 963
e 263 887
e 264 331
e 264 490
e 264 647
e 264 731
e 264 905
e 265 890
e 265 489
e 265 288
e 265 521
e 265 963
e 265 399
e 266 319
e 266 381
e 266 956
e 267 841
e 267 683
e 267 475
e 268 935
e 268 551
e 268 994
e 268 919
e 269 731
e 269 272
e 269 279
e 270 311
e 270 774
e 270 395
e 270 763
e 272 537
e 272 431
e 272 649
e 273 943
e 273 510
e 274 594
e 274 367
e 274 952
e 274 929
e 274 371
e 277 785
e 279 637
e 279 998
e 280 454
e 280 987
e 280 539
e 280 768
e 282 786
e 282 905
e 282 848
e 282 539
e 282 673
e 282 464
e 282 749
e 282 301
e 284 917
e 284 746
e 284 813
e 285 532
e 285 582
e 286 995
e 286 310
e 286 447
e 288 687
e 288 719
e 288 328
e 288 337
e 288 814
e 291 493
e 291 382
e 292 528
e 292 450
e 293 322
e 293 997
e 294 550
e 294 873
e 294 480
e 295 943
e 295 418
e 296 370
e 296 504
e 296 569
e 296 342
e 298 474
e 298 635
e 299 574
e 299 799
e 300 962
e 300 881
e 300 905
e 300 525
e 300 496
e 300 915
e 300 385
e 301 628
e 302 307
e 302 767
e 303 899
e 303 375
e 303 723
e 303 627
e 305 362
e 305 461
e 305 505
e 307 563
e 307 586
e 307 721
e 307 661
e 308 649
e 308 399
e 308 969
e 308 532
e 308 764
e 309 799
e 309 338
e 309 984
e 309 496
e 310 863
e 310 576
e 310 635
e 310 585
e 311 797
e 311 338
e 311 404
e 312 535
e 312 811
e 313 464
e 313 502
e 313 848
e 313 877
e 314 954
e 314 973
e 314 799
e 314 398
e 314 897
e 314 830
e 315 446
e 315 803
e 315 699
e 315 648
e 316 851
e 316 788
e 316 991
e 316 379
e 318 967
e 318 396
e 318 698
e 318 335
e 319 562
e 319 840
e 319 790
e 319 442
e 319 611
e 320 646
e 320 738
e 321 378
e 322 810
e 322 504
e 322 538
e 326 428
e 326 477
e 326 790
e 326 569
e 326 1000
e 327 699
e 327 772
e 328 528
e 328 368
e 328 513
e 328 351
e 328 627
e 329 748
e 329 754
e 329 835
e 330 814
e 330 579
e 330 492
e 330 783
e 331 573
e 335 887
e 335 680
e 335 782
e 336 689
e 336 690
e 336 638
e 337 904
e 337 680
e 338 950
e 338 535
e 339 652
e 339 743
e 339 980
e 339 464
e 340 651
e 340 804
e 340 933
e 341 558
e 342 463
e 342 347
e 343 913
e 343 472
e 343 994
e 345 545
e 345 897
e 345 757
e 345 443
e 345 966
e 346 769
e 346 972
e 347 541
e 348 431
e 348 529
e 348 890
e 349 840
e 352 681
e 353 980
e 353 499
e 353 913
e 354 538
e 354 647
e 354 817
e 358 396
e 358 813
e 358 667
e 359 492
e 359 559
e 359 601
e 359 427
e 361 461
e 361 855
e 361 480
e 362 947
e 362 559
e 362 769
e 362 919
e 363 904
e 363 646
e 363 560
e 363 687
e 364 825
e 364 365
e 364 897
e 364 686
e 364 603
e 365 641
e 365 881
e 366 897
e 366 570
e 366 984
e 367 998
e 367 673
e 367 770
e 367 742
e 367 700
e 367 975
e 368 437
e 368 974
e 369 991
e 369 564
e 370 593
e 370 1000
e 370 491
e 370 935
e 370 521
e 371 568
e 371 490
e 372 878
e 372 565
e 374 750
e 374 696
e 375 416
e 375 550
e 375 514
e 378 797
e 378 894
e 378 919
e 379 499
e 380 866
e 380 1000
e 380 506
e 381 890
e 381 500
e 381 475
e 382 961
e 382 805
e 382 411
e 382 427
e 382 705
e 382 790
e 382 601
e 383 466
e 383 545
e 383 526
e 384 959
e 384 548
e 385 431
e 385 500
e 385 570
e 385 956
e 387 425
e 389 501
e 389 743
e 389 600
e 390 458
e 390 415
e 390 837
e 390 538
e 390 833
e 392 647
e 392 460
e 392 689
e 393 561
e 393 896
e 394 941
e 394 598
e 395 458
e 395 595
e 396 594
e 398 753
e 398 844
e 398 441
e 399 657
e 399 411
e 399 625
e 399 959
e 399 463
e 400 870
e 400 445
e 400 878
e 400 440
e 400 676
e 402 811
e 402 989
e 402 420
e 402 576
e 402 564
e 403 633
e 403 775
e 403 849
e 404 596
e 405 941
e 407 511
e 407 738
e 407 805
e 411 559
e 411 598
e 413 911
e 413 888
e 413 776
e 415 584
e 416 793
e 416 924
e 416 975
e 417 999
e 417 623
e 417 685
e 417 632
e 418 862
e 418 716
e 419 982
e 419 757
e 419 774
e 420 735
e 420 941
e 420 834
e 421 582
e 421 578
e 423 513
e 423 511
e 423 649
e 424 576
e 424 485
e 424 763
e 424 996
e 424 878
e 424 441
e 425 625
e 425 657
e 426 861
e 426 549
e 426 734
e 427 994
e 427 714
e 427 574
e 427 926
e 427 703
e 427 611
e 428 630
e 428 853
e 428 832
e 429 711
e 429 737
e 430 440
e 430 628
e 431 887
e 431 708
e 431 480
e 433 794
e 433 601
e 433 891
e 436 758
e 436 950
e 436 947
e 436 984
e 436 671
e 437 638
e 437 826
e 438 748
e 439 941
e 439 670
e 439 647
e 440 955
e 441 445
e 442 790
e 442 713
e 442 579
e 442 587
e 443 844
e 443 738
e 445 745
e 446 880
e 446 614
e 446 806
e 447 672
e 447 933
e 448 532
e 448 843
e 448 616
e 448 676
e 450 951
e 450 841
e 451 671
e 454 661
e 454 716
e 456 514
e 456 698
e 458 542
e 458 686
e 458 883
e 459 600
e 459 510
e 459 479
e 460 681
e 461 591
e 461 862
e 462 560
e 462 601
e 462 670
e 462 968
e 462 493
e 464 883
e 464 491
e 465 810
e 465 698
e 465 730
e 466 661
e 466 597
e 468 703
e 468 596
e 468 954
e 469 916
e 469 925
e 471 645
e 471 830
e 471 696
e 471 944
e 471 615
e 472 621
e 474 789
e 474 536
e 475 818
e 475 894
e 475 598
e 476 743
e 476 576
e 477 684
e 478 601
e 478 763
e 478 810
e 479 964
e 480 485
e 484 549
e 484 543
e 484 576
e 487 833
e 487 818
e 487 844
e 487 709
e 487 724
e 488 612
e 490 961
e 491 621
e 491 720
e 491 873
e 491 991
e 492 971
e 493 735
e 493 554
e 493 804
e 493 561
e 493 754
e 493 750
e 493 925
e 494 882
e 494 625
e 494 503
e 495 992
e 495 812
e 495 838
e 496 600
e 496 786
e 498 764
e 498 974
e 499 564
e 499 931
e 500 894
e 500 945
e 500 707
e 501 770
e 501 946
e 501 836
e 502 535
e 502 950
e 503 566
e 503 877
e 503 847
e 503 763
e 503 961
e 503 532
e 504 570
e 504 767
e 504 528
e 506 792
e 506 892
e 506 553
e 506 536
e 507 626
e 507 523
e 507 536
e 508 552
e 508 701
e 508 567
e 508 749
e 508 748
e 508 620
e 509 713
e 510 997
e 510 512
e 512 984
e 512 952
e 513 963
e 513 961
e 513 564
e 513 656
e 513 935
e 514 961
e 516 721
e 516 939
e 516 701
e 518 738
e 518 741
e 519 815
e 519 643
e 520 658
e 520 627
e 520 538
e 521 998
e 521 944
e 523 850
e 523 589
e 523 596
e 525 561
e 526 609
e 526 837
e 526 685
e 526 709
e 526 987
e 528 553
e 528 751
e 528 803
e 528 856
e 529 734
e 529 642
e 533 965
e 533 661
e 534 969
e 534 786
e 535 757
e 535 991
e 535 799
e 535 900
e 535 849
e 536 973
e 536 957
e 536 725
e 536 692
e 536 679
e 537 557
e 538 971
e 538 573
e 538 980
e 538 848
e 539 661
e 539 943
e 541 742
e 541 836
e 545 921
e 548 761
e 548 584
e 550 742
e 550 835
e 551 657
e 551 965
e 551 711
e 552 680
e 552 690
e 552 975
e 552 605
e 552 639
e 552 649
e 553 931
e 554 939
e 554 847
e 555 673
e 555 783
e 555 647
e 558 799
e 558 812
e 559 802
e 560 937
e 562 999
e 562 729
e 564 803
e 564 832
e 565 962
e 565 788
e 567 746
e 567 816
e 568 643
e 568 795
e 568 614
e 569 954
e 569 717
e 569 720
e 569 948
e 570 848
e 570 997
e 571 862
e 571 783
e 571 882
e 572 762
e 572 682
e 572 732
e 572 723
e 572 980
e 573 687
e 574 628
e 574 966
e 574 884
e 574 741
e 578 593
e 578 745
e 579 627
e 582 999
e 582 845
e 582 645
e 582 916
e 585 719
e 585 689
e 585 600
e 586 837
e 587 959
e 587 880
e 588 901
e 588 589
e 589 939
e 590 845
e 590 928
e 591 743
e 591 947
e 593 966
e 593 942
e 593 862
e 594 728
e 594 924
e 594 977
e 594 601
e 595 935
e 595 900
e 595 942
e 596 649
e 596 731
e 597 969
e 598 988
e 598 708
e 600 704
e 601 913
e 601 813
e 603 776
e 603 951
e 603 950
e 605 728
e 605 835
e 605 698
e 607 955
e 607 669
e 607 885
e 607 741
e 607 832
e 609 884
e 609 950
e 609 928
e 609 815
e 612 679
e 613 645
e 613 753
e 613 700
e 613 740
e 614 823
e 615 974
e 615 789
e 616 750
e 616 721
e 616 817
e 616 893
e 617 945
e 617 683
e 620 730
e 620 901
e 620 727
e 621 754
e 621 725
e 621 920
e 621 844
e 621 995
e 623 721
e 625 690
e 626 773
e 627 778
e 627 686
e 630 638
e 630 979
e 630 856
e 632 910
e 632 783
e 633 823
e 633 969
e 633 799
e 635 669
e 636 734
e 636 943
e 637 835
e 638 866
e 639 880
e 640 931
e 641 967
e 642 837
e 642 951
e 645 991
e 645 745
e 645 704
e 645 915
e 646 779
e 647 687
e 648 746
e 648 776
e 649 667
e 652 979
e 655 950
e 655 717
e 657 937
e 657 1000
e 657 971
e 658 955
e 658 785
e 666 703
e 667 995
e 667 829
e 667 883
e 667 731
e 669 784
e 669 748
e 669 777
e 670 740
e 670 825
e 671 687
e 671 919
e 672 963
e 672 819
e 672 986
e 672 922
e 676 897
e 679 948
e 679 981
e 681 981
e 684 702
e 685 741
e 686 700
e 690 715
e 692 705
e 698 925
e 699 871
e 699 849
e 700 997
e 701 910
e 701 843
e 701 735
e 701 812
e 702 732
e 703 717
e 705 815
e 705 726
e 705 829
e 707 724
e 708 751
e 708 930
e 709 893
e 711 834
e 711 899
e 711 918
e 713 767
e 713 994
e 713 799
e 714 931
e 715 855
e 715 852
e 716 806
e 719 951
e 719 966
e 720 996
e 723 961
e 724 982
e 725 938
e 726 918
e 726 897
e 726 825
e 727 815
e 728 952
e 730 736
e 730 852
e 734 819
e 735 880
e 736 924
e 736 761
e 736 969
e 736 914
e 737 805
e 737 966
e 737 748
e 738 984
e 738 962
e 741 816
e 742 904
e 743 885
e 743 773
e 746 911
e 746 785
e 746 959
e 748 896
e 753 911
e 754 968
e 758 904
e 758 764
e 761 882
e 762 811
e 762 962
e 764 900
e 766 957
e 766 776
e 769 795
e 769 943
e 770 945
e 772 892
e 772 949
e 775 991
e 775 836
e 776 829
e 776 780
e 777 813
e 778 880
e 779 804
e 779 961
e 780 785
e 782 967
e 783 991
e 785 910
e 788 911
e 789 843
e 790 878
e 792 833
e 792 948
e 793 998
e 794 811
e 794 954
e 795 930
e 796 808
e 796 800
e 799 965
e 800 888
e 802 917
e 804 862
e 806 917
e 808 968
e 808 875
e 811 928
e 811 905
e 812 816
e 815 870
e 816 830
e 817 845
e 818 853
e 819 992
e 820 925
e 823 955
e 825 891
e 826 952
e 826 891
e 829 853
e 831 845
e 834 1000
e 836 905
e 837 924
e 838 872
e 843 898
e 843 926
e 844 918
e 845 949
e 845 920
e 847 901
e 851 873
e 852 925
e 853 999
e 853 909
e 855 939
e 856 866
e 856 950
e 861 948
e 870 990
e 871 965
e 871 933
e 872 949
e 873 954
e 880 918
e 881 946
e 885 900
e 887 966
e 888 961
e 890 949
e 890 918
e 890 991
e 892 920
e 893 957
e 896 988
e 896 930
e 898 901
e 901 910
e 909 954
e 909 991
e 911 959
e 916 971
e 920 938
e 921 981
e 921 939
e 922 938
e 925 986
e 925 928
e 926 951
e 929 973
e 933 990
e 935 947
e 943 964
e 946 981
e 955 967
e 961 972
e 968 977
e 974 999
e 982 987
e 987 999
e 989 994
