txt_Ins/graph-1000-668.txt
n 1000
e 2 940
e 2 28
e 2 74
e 2 510
e 2 532
e 3 165
e 3 779
e 3 775
e 3 925
e 3 122
e 5 795
e 5 290
e 5 239
e 5 199
e 5 610
e 6 787
e 6 214
e 6 348
e 6 778
e 6 749
e 6 46
e 6 42
e 6 350
e 8 150
e 8 712
e 8 532
e 8 70
e 8 792
e 9 504
e 9 528
e 9 346
e 9 883
e 9 156
e 9 909
e 10 415
e 10 55
e 10 278
e 10 869
e 10 745
e 11 142
e 11 498
e 11 801
e 12 174
e 12 540
e 12 339
e 12 24
e 13 187
e 13 791
e 13 532
e 13 553
e 15 365
e 15 272
e 15 886
e 16 93
e 16 82
e 16 680
e 16 507
e 16 38
e 17 370
e 17 63
e 17 819
e 21 470
e 21 436
e 21 249
e 21 671
e 24 230
e 24 151
e 25 61
e 25 285
e 25 978
e 25 360
e 25 815
e 25 441
e 26 703
e 26 389
e 26 548
e 26 340
e 26 350
e 26 319
e 27 76
e 27 325
e 27 238
e 27 465
e 27 987
e 28 682
e 28 620
e 28 872
e 28 639
e 30 980
e 30 571
e 30 534
e 30 792
e 33 178
e 33 641
e 33 948
e 33 611
e 33 562
e 33 442
e 33 684
e 35 910
e 35 771
e 35 495
e 35 373
e 36 231
e 36 937
e 36 347
e 36 397
e 36 707
e 37 139
e 37 668
e 37 706
e 38 678
e 38 499
e 39 998
e 39 294
e 39 585
e 40 728
e 40 488
e 40 462
e 40 655
e 40 209
e 41 506
e 41 654
e 41 691
e 41 229
e 42 88
e 42 930
e 42 622
e 45 208
e 45 558
e 45 177
e 45 945
e 45 537
e 46 47
e 46 535
e 47 534
e 47 725
e 47 527
e 47 419
e 47 849
e 49 815
e 49 679
e 49 909
e 49 397
e 51 97
e 51 943
e 51 976
e 51 918
e 52 260
e 52 266
e 52 561
e 52 940
e 52 782
e 52 461
e 52 596
e 55 353
e 55 458
e 55 882
e 55 636
e 56 585
e 56 320
e 56 449
e 56 517
e 56 165
e 56 210
e 58 327
e 58 655
e 58 450
e 58 752
e 58 102
e 58 471
e 59 484
e 59 253
e 59 476
e 59 350
e 59 273
e 60 541
e 60 955
e 60 309
e 60 95
e 61 457
e 61 914
e 61 593
e 62 639
e 62 468
e 62 921
e 62 70
e 62 117
e 63 272
e 63 581
e 63 567
e 63 815
e 63 890
e 64 183
e 64 762
e 64 311
e 64 475
e 64 900
e 64 684
e 64 988
e 65 414
e 65 844
e 65 767
e 65 583
e 66 492
e 66 656
e 66 850
e 68 476
e 68 278
e 68 999
e 68 351
e 68 874
e 69 733
e 69 424
e 69 228
e 69 726
e 69 625
e 70 587
e 70 816
e 70 772
e 70 285
e 71 727
e 71 708
e 71 701
e 71 542
e 72 951
e 72 839
e 72 161
e 72 551
e 72 581
e 72 588
e 72 518
e 72 794
e 72 88
e 73 378
e 73 100
e 73 501
e 73 697
e 73 518
e 73 162
e 74 874
e 74 135
e 74 442
e 74 813
e 74 290
e 74 700
e 74 100
e 75 876
e 75 772
e 75 706
e 75 206
e 75 98
e 75 438
e 76 497
e 76 504
e 76 852
e 76 593
e 77 201
e 77 624
e 77 787
e 78 812
e 78 173
e 78 765
e 78 893
e 78 678
e 78 231
e 79 209
e 79 183
e 79 934
e 80 855
e 80 106
e 80 670
e 80 547
e 80 467
e 82 165
e 82 173
e 82 93
e 85 973
e 85 298
e 85 644
e 85 718
e 85 335
e 86 258
e 86 650
e 86 589
e 86 178
e 86 377
e 86 913
e 86 788
e 86 680
e 87 772
e 87 306
e 87 849
e 87 929
e 87 544
e 87 691
e 87 268
e 88 99
e 88 510
e 89 157
e 89 624
e 89 276
e 89 923
e 89 420
e 89 627
e 91 834
e 91 403
e 91 886
e 91 831
e 93 991
e 93 141
e 94 313
e 94 861
e 94 363
e 94 203
e 94 178
e 94 192
e 95 294
e 95 395
e 95 437
e 96 266
e 96 450
e 96 724
e 97 568
e 97 761
e 97 417
e 97 771
e 97 766
e 98 533
e 98 348
e 99 799
e 99 479
e 100 475
e 100 238
e 100 290
e 100 197
e 101 682
e 101 350
e 101 300
e 101 739
e 101 279
e 102 951
e 102 544
e 102 383
e 102 206
e 103 852
e 103 684
e 103 805
e 103 642
e 103 895
e 105 146
e 105 194
e 105 558
e 105 727
e 105 380
e 105 929
e 106 199
e 106 488
e 106 955
e 106 924
e 107 789
e 107 161
e 107 340
e 107 985
e 108 194
e 108 301
e 108 306
e 108 169
e 110 436
e 110 678
e 110 198
e 111 227
e 111 553
e 111 748
e 112 346
e 112 753
e 112 489
e 112 686
e 114 178
e 114 291
e 114 985
e 114 728
e 117 301
e 117 392
e 117 816
e 118 249
e 118 840
e 118 363
e 118 638
e 118 909
e 119 765
e 119 399
e 119 424
e 119 368
e 119 666
e 119 722
e 120 881
e 120 445
e 120 588
e 120 367
e 120 581
e 122 948
e 122 417
e 122 197
e 122 925
e 125 473
e 125 815
e 125 626
e 125 461
e 125 206
e 126 767
e 126 432
e 126 345
e 126 196
e 126 534
e 127 807
e 127 366
e 127 703
e 127 944
e 129 352
e 129 528
e 129 940
e 129 960
e 129 909
e 130 174
e 130 913
e 130 541
e 131 752
e 131 767
e 131 689
e 131 794
e 131 627
e 131 350
e 132 272
e 132 830
e 132 394
e 134 656
e 134 235
e 134 455
e 134 689
e 135 642
e 135 508
e 135 547
e 135 714
e 135 442
e 136 985
e 136 648
e 136 567
e 136 561
e 136 199
e 136 871
e 136 525
e 136 974
e 136 226
e 137 501
e 137 811
e 137 777
e 137 829
e 137 735
e 137 362
e 137 947
e 138 393
e 138 985
e 138 325
e 138 542
e 138 534
e 138 292
e 139 987
e 139 165
e 139 512
e 139 962
e 139 212
e 139 326
e 139 352
e 140 631
e 140 147
e 140 163
e 140 174
e 140 940
e 141 446
e 141 162
e 141 638
e 141 439
e 141 665
e 141 318
e 142 923
e 142 156
e 142 830
e 143 722
e 143 284
e 143 467
e 146 212
e 146 353
e 147 876
e 147 996
e 147 506
e 147 187
e 147 861
e 147 757
e 147 613
e 147 933
e 149 250
e 149 252
e 149 781
e 150 457
e 150 896
e 150 728
e 150 718
e 150 556
e 151 246
e 151 883
e 152 351
e 152 575
e 152 536
e 153 426
e 153 783
e 153 484
e 154 453
e 154 369
e 154 565
e 154 528
e 154 378
e 156 752
e 157 335
e 157 847
e 159 809
e 159 190
e 159 613
e 159 804
e 159 948
e 160 829
e 160 884
e 160 916
e 160 230
e 160 314
e 161 168
e 161 239
e 161 497
e 161 378
e 161 938
e 161 635
e 161 269
e 162 432
e 162 439
e 162 592
e 162 616
e 162 920
e 162 259
e 163 364
e 163 942
e 165 381
e 167 432
e 167 487
e 167 620
e 168 550
e 168 460
e 168 712
e 168 304
e 168 478
e 169 232
e 169 479
e 169 804
e 169 713
e 169 484
e 169 240
e 169 453
e 172 317
e 172 459
e 172 778
e 173 665
e 173 719
e 173 342
e 173 788
e 174 479
e 174 399
e 174 460
e 175 364
e 175 501
e 175 599
e 175 928
e 176 993
e 176 379
e 176 740
e 177 781
e 177 589
e 177 374
e 177 933
e 178 501
e 178 724
e 178 246
e 181 638
e 181 489
e 181 548
e 181 612
e 182 639
e 182 327
e 182 733
e 183 285
e 186 757
e 186 435
e 186 882
e 186 285
e 187 934
e 187 533
e 187 900
e 187 294
e 187 402
e 188 301
e 188 262
e 188 811
e 188 439
e 189 320
e 189 392
e 189 945
e 189 583
e 190 689
e 190 681
e 190 912
e 190 817
e 190 698
e 190 791
e 190 566
e 191 684
e 191 567
e 191 487
e 191 849
e 191 301
e 192 971
e 192 307
e 193 981
e 193 297
e 193 388
e 193 650
e 194 561
e 194 834
e 194 508
e 194 460
e 195 831
e 195 301
e 195 753
e 195 735
e 195 540
e 196 477
e 196 881
e 196 731
e 196 371
e 197 541
e 198 321
e 198 360
e 198 843
e 198 463
e 199 700
e 199 862
e 199 987
e 199 556
e 200 734
e 200 753
e 200 954
e 201 403
e 201 532
e 201 616
e 201 681
e 201 736
e 203 464
e 203 776
e 203 386
e 203 483
e 204 243
e 204 489
e 204 832
e 205 559
e 205 708
e 205 828
e 206 578
e 206 851
e 208 562
e 208 855
e 208 399
e 208 897
e 208 731
e 208 491
e 208 404
e 208 565
e 209 981
e 209 377
e 209 285
e 210 232
e 210 987
e 210 214
e 210 706
e 211 683
e 211 593
e 211 285
e 211 943
e 211 243
e 211 624
e 212 956
e 212 640
e 213 371
e 213 695
e 213 604
e 214 932
e 214 944
e 214 861
e 214 970
e 214 414
e 216 860
e 216 930
e 216 383
e 216 547
e 217 627
e 217 232
e 217 837
e 217 294
e 217 587
e 217 313
e 221 927
e 221 723
e 221 781
e 221 819
e 221 635
e 223 326
e 223 488
e 223 404
e 224 593
e 224 278
e 224 814
e 226 855
e 226 648
e 227 538
e 227 450
e 227 468
e 227 651
e 227 824
e 228 669
e 228 330
e 228 729
e 228 936
e 228 805
e 229 491
e 229 773
e 230 422
e 230 489
e 231 816
e 232 524
e 232 626
e 232 471
e 234 389
e 234 740
e 234 951
e 234 426
e 235 646
e 235 883
e 235 320
e 235 570
e 235 363
e 236 987
e 236 524
e 236 728
e 236 933
e 238 844
e 238 453
e 239 626
e 239 941
e 240 553
e 240 884
e 240 488
e 241 995
e 241 429
e 241 915
e 241 695
e 241 817
e 243 796
e 243 297
e 243 900
e 243 917
e 245 989
e 245 406
e 245 958
e 245 861
e 246 495
e 246 963
e 249 765
e 249 783
e 250 702
e 250 775
e 250 811
e 250 657
e 252 369
e 252 829
e 253 862
e 253 900
e 253 276
e 253 700
e 254 428
e 254 300
e 254 510
e 254 898
e 257 684
e 257 981
e 257 549
e 258 566
e 258 936
e 258 561
e 258 589
e 259 345
e 259 750
e 259 547
e 259 386
e 260 437
e 260 424
e 260 941
e 260 311
e 262 962
e 262 886
e 263 330
e 263 489
e 263 646
e 263 730
e 263 904
e 264 889
e 264 488
e 264 287
e 264 520
e 264 962
e 264 398
e 265 318
e 265 380
e 265 955
e 266 840
e 266 682
e 266 474
e 267 934
e 267 550
e 267 993
e 267 918
e 268 730
e 268 271
e 268 278
e 269 310
e 269 773
e 269 394
e 269 762
e 271 536
e 271 430
e 271 648
e 272 942
e 272 509
e 273 593
e 273 366
e 273 951
e 273 928
e 273 370
e 276 784
e 278 636
e 278 997
e 279 453
e 279 986
e 279 538
e 279 767
e 281 785
e 281 904
e 281 847
e 281 538
e 281 672
e 281 463
e 281 748
e 281 300
e 283 916
e 283 745
e 283 812
e 284 531
e 284 581
e 285 994
e 285 309
e 285 446
e 287 686
e 287 718
e 287 327
e 287 336
e 287 813
e 290 492
e 290 381
e 291 527
e 291 449
e 292 321
e 292 996
e 293 549
e 293 872
e 293 479
e 294 942
e 294 417
e 295 369
e 295 503
e 295 568
e 295 341
e 297 473
e 297 634
e 298 573
e 298 798
e 299 961
e 299 880
e 299 904
e 299 524
e 299 495
e 299 914
e 299 384
e 300 627
e 301 306
e 301 766
e 302 898
e 302 374
e 302 722
e 302 626
e 304 361
e 304 460
e 304 504
e 306 562
e 306 585
e 306 720
e 306 660
e 307 648
e 307 398
e 307 968
e 307 531
e 307 763
e 308 798
e 308 337
e 308 983
e 308 495
e 309 862
e 309 575
e 309 634
e 309 584
e 310 796
e 310 337
e 310 403
e 311 534
e 311 810
e 312 463
e 312 501
e 312 847
e 312 876
e 313 953
e 313 972
e 313 798
e 313 397
e 313 896
e 313 829
e 314 445
e 314 802
e 314 698
e 314 647
e 315 850
e 315 787
e 315 990
e 315 378
e 317 966
e 317 395
e 317 697
e 317 334
e 318 561
e 318 839
e 318 789
e 318 441
e 318 610
e 319 645
e 319 737
e 320 377
e 321 809
e 321 503
e 321 537
e 325 427
e 325 476
e 325 789
e 325 568
e 325 999
e 326 698
e 326 771
e 327 527
e 327 367
e 327 512
e 327 350
e 327 626
e 328 747
e 328 753
e 328 834
e 329 813
e 329 578
e 329 491
e 329 782
e 330 572
e 334 886
e 334 679
e 334 781
e 335 688
e 335 689
e 335 637
e 336 903
e 336 679
e 337 949
e 337 534
e 338 651
e 338 742
e 338 979
e 338 463
e 339 650
e 339 803
e 339 932
e 340 557
e 341 462
e 341 346
e 342 912
e 342 471
e 342 993
e 344 544
e 344 896
e 344 756
e 344 442
e 344 965
e 345 768
e 345 971
e 346 540
e 347 430
e 347 528
e 347 889
e 348 839
e 351 680
e 352 979
e 352 498
e 352 912
e 353 537
e 353 646
e 353 816
e 357 395
e 357 812
e 357 666
e 358 491
e 358 558
e 358 600
e 358 426
e 360 460
e 360 854
e 360 479
e 361 946
e 361 558
e 361 768
e 361 918
e 362 903
e 362 645
e 362 559
e 362 686
e 363 824
e 363 364
e 363 896
e 363 685
e 363 602
e 364 640
e 364 880
e 365 896
e 365 569
e 365 983
e 366 997
e 366 672
e 366 769
e 366 741
e 366 699
e 366 974
e 367 436
e 367 973
e 368 990
e 368 563
e 369 592
e 369 999
e 369 490
e 369 934
e 369 520
e 370 567
e 370 489
e 371 877
e 371 564
e 373 749
e 373 695
e 374 415
e 374 549
e 374 513
e 377 796
e 377 893
e 377 918
e 378 498
e 379 865
e 379 999
e 379 505
e 380 889
e 380 499
e 380 474
e 381 960
e 381 804
e 381 410
e 381 426
e 381 704
e 381 789
e 381 600
e 382 465
e 382 544
e 382 525
e 383 958
e 383 547
e 384 430
e 384 499
e 384 569
e 384 955
e 386 424
e 388 500
e 388 742
e 388 599
e 389 457
e 389 414
e 389 836
e 389 537
e 389 832
e 391 646
e 391 459
e 391 688
e 392 560
e 392 895
e 393 940
e 393 597
e 394 457
e 394 594
e 395 593
e 397 752
e 397 843
e 397 440
e 398 656
e 398 410
e 398 624
e 398 958
e 398 462
e 399 869
e 399 444
e 399 877
e 399 439
e 399 675
e 401 810
e 401 988
e 401 419
e 401 575
e 401 563
e 402 632
e 402 774
e 402 848
e 403 595
e 404 940
e 406 510
e 406 737
e 406 804
e 410 558
e 410 597
e 412 910
e 412 887
e 412 775
e 414 583
e 415 792
e 415 923
e 415 974
e 416 998
e 416 622
e 416 684
e 416 631
e 417 861
e 417 715
e 418 981
e 418 756
e 418 773
e 419 734
e 419 940
e 419 833
e 420 581
e 420 577
e 422 512
e 422 510
e 422 648
e 423 575
e 423 484
e 423 762
e 423 995
e 423 877
e 423 440
e 424 624
e 424 656
e 425 860
e 425 548
e 425 733
e 426 993
e 426 713
e 426 573
e 426 925
e 426 702
e 426 610
e 427 629
e 427 852
e 427 831
e 428 710
e 428 736
e 429 439
e 429 627
e 430 886
e 430 707
e 430 479
e 432 793
e 432 600
e 432 890
e 435 757
e 435 949
e 435 946
e 435 983
e 435 670
e 436 637
e 436 825
e 437 747
e 438 940
e 438 669
e 438 646
e 439 954
e 440 444
e 441 789
e 441 712
e 441 578
e 441 586
e 442 843
e 442 737
e 444 744
e 445 879
e 445 613
e 445 805
e 446 671
e 446 932
e 447 531
e 447 842
e 447 615
e 447 675
e 449 950
e 449 840
e 450 670
e 453 660
e 453 715
e 455 513
e 455 697
e 457 541
e 457 685
e 457 882
e 458 599
e 458 509
e 458 478
e 459 680
e 460 590
e 460 861
e 461 559
e 461 600
e 461 669
e 461 967
e 461 492
e 463 882
e 463 490
e 464 809
e 464 697
e 464 729
e 465 660
e 465 596
e 467 702
e 467 595
e 467 953
e 468 915
e 468 924
e 470 644
e 470 829
e 470 695
e 470 943
e 470 614
e 471 620
e 473 788
e 473 535
e 474 817
e 474 893
e 474 597
e 475 742
e 475 575
e 476 683
e 477 600
e 477 762
e 477 809
e 478 963
e 479 484
e 483 548
e 483 542
e 483 575
e 486 832
e 486 817
e 486 843
e 486 708
e 486 723
e 487 611
e 489 960
e 490 620
e 490 719
e 490 872
e 490 990
e 491 970
e 492 734
e 492 553
e 492 803
e 492 560
e 492 753
e 492 749
e 492 924
e 493 881
e 493 624
e 493 502
e 494 991
e 494 811
e 494 837
e 495 599
e 495 785
e 497 763
e 497 973
e 498 563
e 498 930
e 499 893
e 499 944
e 499 706
e 500 769
e 500 945
e 500 835
e 501 534
e 501 949
e 502 565
e 502 876
e 502 846
e 502 762
e 502 960
e 502 531
e 503 569
e 503 766
e 503 527
e 505 791
e 505 891
e 505 552
e 505 535
e 506 625
e 506 522
e 506 535
e 507 551
e 507 700
e 507 566
e 507 748
e 507 747
e 507 619
e 508 712
e 509 996
e 509 511
e 511 983
e 511 951
e 512 962
e 512 960
e 512 563
e 512 655
e 512 934
e 513 960
e 515 720
e 515 938
e 515 700
e 517 737
e 517 740
e 518 814
e 518 642
e 519 657
e 519 626
e 519 537
e 520 997
e 520 943
e 522 849
e 522 588
e 522 595
e 524 560
e 525 608
e 525 836
e 525 684
e 525 708
e 525 986
e 527 552
e 527 750
e 527 802
e 527 855
e 528 733
e 528 641
e 532 964
e 532 660
e 533 968
e 533 785
e 534 756
e 534 990
e 534 798
e 534 899
e 534 848
e 535 972
e 535 956
e 535 724
e 535 691
e 535 678
e 536 556
e 537 970
e 537 572
e 537 979
e 537 847
e 538 660
e 538 942
e 540 741
e 540 835
e 544 920
e 547 760
e 547 583
e 549 741
e 549 834
e 550 656
e 550 964
e 550 710
e 551 679
e 551 689
e 551 974
e 551 604
e 551 638
e 551 648
e 552 930
e 553 938
e 553 846
e 554 672
e 554 782
e 554 646
e 557 798
e 557 811
e 558 801
e 559 936
e 561 998
e 561 728
e 563 802
e 563 831
e 564 961
e 564 787
e 566 745
e 566 815
e 567 642
e 567 794
e 567 613
e 568 953
e 568 716
e 568 719
e 568 947
e 569 847
e 569 996
e 570 861
e 570 782
e 570 881
e 571 761
e 571 681
e 571 731
e 571 722
e 571 979
e 572 686
e 573 627
e 573 965
e 573 883
e 573 740
e 577 592
e 577 744
e 578 626
e 581 998
e 581 844
e 581 644
e 581 915
e 584 718
e 584 688
e 584 599
e 585 836
e 586 958
e 586 879
e 587 900
e 587 588
e 588 938
e 589 844
e 589 927
e 590 742
e 590 946
e 592 965
e 592 941
e 592 861
e 593 727
e 593 923
e 593 976
e 593 600
e 594 934
e 594 899
e 594 941
e 595 648
e 595 730
e 596 968
e 597 987
e 597 707
e 599 703
e 600 912
e 600 812
e 602 775
e 602 950
e 602 949
e 604 727
e 604 834
e 604 697
e 606 954
e 606 668
e 606 884
e 606 740
e 606 831
e 608 883
e 608 949
e 608 927
e 608 814
e 611 678
e 612 644
e 612 752
e 612 699
e 612 739
e 613 822
e 614 973
e 614 788
e 615 749
e 615 720
e 615 816
e 615 892
e 616 944
e 616 682
e 619 729
e 619 900
e 619 726
e 620 753
e 620 724
e 620 919
e 620 843
e 620 994
e 622 720
e 624 689
e 625 772
e 626 777
e 626 685
e 629 637
e 629 978
e 629 855
e 631 909
e 631 782
e 632 822
e 632 968
e 632 798
e 634 668
e 635 733
e 635 942
e 636 834
e 637 865
e 638 879
e 639 930
e 640 966
e 641 836
e 641 950
e 644 990
e 644 744
e 644 703
e 644 914
e 645 778
e 646 686
e 647 745
e 647 775
e 648 666
e 651 978
e 654 949
e 654 716
e 656 936
e 656 999
e 656 970
e 657 954
e 657 784
e 665 702
e 666 994
e 666 828
e 666 882
e 666 730
e 668 783
e 668 747
e 668 776
e 669 739
e 669 824
e 670 686
e 670 918
e 671 962
e 671 818
e 671 985
e 671 921
e 675 896
e 678 947
e 678 980
e 680 980
e 683 701
e 684 740
e 685 699
e 689 714
e 691 704
e 697 924
e 698 870
e 698 848
e 699 996
e 700 909
e 700 842
e 700 734
e 700 811
e 701 731
e 702 716
e 704 814
e 704 725
e 704 828
e 706 723
e 707 750
e 707 929
e 708 892
e 710 833
e 710 898
e 710 917
e 712 766
e 712 993
e 712 798
e 713 930
e 714 854
e 714 851
e 715 805
e 718 950
e 718 965
e 719 995
e 722 960
e 723 981
e 724 937
e 725 917
e 725 896
e 725 824
e 726 814
e 727 951
e 729 735
e 729 851
e 733 818
e 734 879
e 735 923
e 735 760
e 735 968
e 735 913
e 736 804
e 736 965
e 736 747
e 737 983
e 737 961
e 740 815
e 741 903
e 742 884
e 742 772
e 745 910
e 745 784
e 745 958
e 747 895
e 752 910
e 753 967
e 757 903
e 757 763
e 760 881
e 761 810
e 761 961
e 763 899
e 765 956
e 765 775
e 768 794
e 768 942
e 769 944
e 771 891
e 771 948
e 774 990
e 774 835
e 775 828
e 775 779
e 776 812
e 777 879
e 778 803
e 778 960
e 779 784
e 781 966
e 782 990
e 784 909
e 787 910
e 788 842
e 789 877
e 791 832
e 791 947
e 792 997
e 793 810
e 793 953
e 794 929
e 795 807
e 795 799
e 798 964
e 799 887
e 801 916
e 803 861
e 805 916
e 807 967
e 807 874
e 810 927
e 810 904
e 811 815
e 814 869
e 815 829
e 816 844
e 817 852
e 818 991
e 819 924
e 822 954
e 824 890
e 825 951
e 825 890
e 828 852
e 830 844
e 833 999
e 835 904
e 836 923
e 837 871
e 842 897
e 842 925
e 843 917
e 844 948
e 844 919
e 846 900
e 850 872
e 851 924
e 852 998
e 852 908
e 854 938
e 855 865
e 855 949
e 860 947
e 869 989
e 870 964
e 870 932
e 871 948
e 872 953
e 879 917
e 880 945
e 884 899
e 886 965
e 887 960
e 889 948
e 889 917
e 889 990
e 891 919
e 892 956
e 895 987
e 895 929
e 897 900
e 900 909
e 908 953
e 908 990
e 910 958
e 915 970
e 919 937
e 920 980
e 920 938
e 921 937
e 924 985
e 924 927
e 925 950
e 928 972
e 932 989
e 934 946
e 942 963
e 945 980
e 954 966
e 960 971
e 967 976
e 973 998
e 981 986
e 986 998
e 988 993
